\ Model mip1
\ LP format - for model browsing. Use MPS format to capture full model detail.
Minimize
  0.7343678830588836 f(x_0) + 0.6036326271357813 f(x_1)
   + 0.7074713006942286 f(x_2) + 0.4884700200516431 f(x_3)
   + 0.618807565850526 f(x_4) + 0.5178915814756628 f(x_5)
   + 0.2867729472952752 f(x_6) + 0.3491818828993973 f(x_7)
   + 0.6605314477005133 f(x_8) + 0.6112292682595277 f(x_9)
   + 0.3182019692840254 f(x_10) + 0.2823685751604437 f(x_11)
   + 0.3357273816724425 f(x_12) + 0.6434990320301892 f(x_13)
   + 0.3903570711003565 f(x_14) + 0.4591890440467326 f(x_15)
   + 0.3997575572830025 f(x_16) + 0.4362962104056646 f(x_17)
   + 0.7372862591918861 f(x_18) + 0.4155440477226405 f(x_19)
   + 0.2501817599299873 f(x_20) + 0.5444854758798765 f(x_21)
   + 0.7393799019210061 f(x_22) + 0.3665305812311404 f(x_23)
   + 0.2600529389337902 f(x_24) + 0.7466822459953787 f(x_25)
   + 0.721621767852658 f(x_26) + 0.3171396558264327 f(x_27)
   + 0.7405359942487257 f(x_28) + 0.5736325222051328 f(x_29)
   + 0.4532162544455997 f(x_30) + 0.5207293451908164 f(x_31)
   + 0.6055346822016758 f(x_32) + 0.3883381857735228 f(x_33)
   + 0.4654649847995567 f(x_34) + 0.6263307034721011 f(x_35)
   + 0.7029764088404256 f(x_36) + 0.3130485731584254 f(x_37)
   + 0.6948052102721403 f(x_38) + 0.368389692677368 f(x_39)
   + 0.6786000644080552 f(x_40) + 0.2600632116938027 f(x_41)
   + 0.4012022273431008 f(x_42) + 0.2729055994936319 f(x_43)
   + 0.5330118930398482 f(x_44) + 0.5874096060075386 f(x_45)
   + 0.4516449743480653 f(x_46) + 0.5851866087999724 f(x_47)
   + 0.5318336305449848 f(x_48) + 0.2656319559858006 f(x_49)
   + 0.617659734855982 f(x_50) + 0.4822172526492776 f(x_51)
   + 0.4755557330794827 f(x_52) + 0.3750650566058762 f(x_53)
   + 0.4033187615667449 f(x_54) + 0.7460954251721683 f(x_55)
   + 0.2805158718792796 f(x_56) + 0.6267981531158033 f(x_57)
   + 0.5138154978079477 f(x_58) + 0.5500412291345679 f(x_59)
   + 0.4389044944110166 f(x_60) + 0.4343634554034565 f(x_61)
   + 0.6040318690701449 f(x_62) + 0.3602008928701951 f(x_63)
   + 0.6600870271466421 f(x_64) + 0.7169978164663693 f(x_65)
   + 0.5518229905483063 f(x_66) + 0.5843670894035626 f(x_67)
   + 0.6273727093771768 f(x_68) + 0.2875938266790936 f(x_69)
   + 0.3589490633726919 f(x_70) + 0.3562745808216235 f(x_71)
   + 0.3711372023538844 f(x_72) + 0.6305439784383023 f(x_73)
   + 0.3570282860276193 f(x_74) + 0.4019313989092225 f(x_75)
   + 0.3025826058778319 f(x_76) + 0.3962093990213231 f(x_77)
   + 0.2643236662816723 f(x_78) + 0.3504746427091566 f(x_79)
   + 0.5101554823551487 f(x_80) + 0.4973522849585477 f(x_81)
   + 0.6322529318974048 f(x_82) + 0.4727014711031772 f(x_83)
   + 0.436267968058982 f(x_84) + 0.2835521890040278 f(x_85)
   + 0.4752721423712934 f(x_86) + 0.4841022923812697 f(x_87)
   + 0.375635188215447 f(x_88) + 0.6408389867942994 f(x_89)
   + 0.3084895272414538 f(x_90) + 0.3443621280488867 f(x_91)
   + 0.658518951447723 f(x_92) + 0.2523552721653186 f(x_93)
   + 0.3149386827268137 f(x_94) + 0.6742571154551862 f(x_95)
   + 0.4777034446155086 f(x_96) + 0.6384481996195088 f(x_97)
   + 0.3198846504540206 f(x_98) + 0.4588103999321768 f(x_99)
Subject To
 constr_x_0: - x_0 + f(x_0) = 0
 constr_x_1: - x_1 + f(x_1) = 0
 constr_x_2: - x_2 + f(x_2) = 0
 constr_x_3: - x_3 + f(x_3) = 0
 constr_x_4: - x_4 + f(x_4) = 0
 constr_x_5: - x_5 + f(x_5) = 0
 constr_x_6: - x_6 + f(x_6) = 0
 constr_x_7: - x_7 + f(x_7) = 0
 constr_x_8: - x_8 + f(x_8) = 0
 constr_x_9: - x_9 + f(x_9) = 0
 constr_x_10: - x_10 + f(x_10) = 0
 constr_x_11: - x_11 + f(x_11) = 0
 constr_x_12: - x_12 + f(x_12) = 0
 constr_x_13: - x_13 + f(x_13) = 0
 constr_x_14: - x_14 + f(x_14) = 0
 constr_x_15: - x_15 + f(x_15) = 0
 constr_x_16: - x_16 + f(x_16) = 0
 constr_x_17: - x_17 + f(x_17) = 0
 constr_x_18: - x_18 + f(x_18) = 0
 constr_x_19: - x_19 + f(x_19) = 0
 constr_x_20: - x_20 + f(x_20) = 0
 constr_x_21: - x_21 + f(x_21) = 0
 constr_x_22: - x_22 + f(x_22) = 0
 constr_x_23: - x_23 + f(x_23) = 0
 constr_x_24: - x_24 + f(x_24) = 0
 constr_x_25: - x_25 + f(x_25) = 0
 constr_x_26: - x_26 + f(x_26) = 0
 constr_x_27: - x_27 + f(x_27) = 0
 constr_x_28: - x_28 + f(x_28) = 0
 constr_x_29: - x_29 + f(x_29) = 0
 constr_x_30: - x_30 + f(x_30) = 0
 constr_x_31: - x_31 + f(x_31) = 0
 constr_x_32: - x_32 + f(x_32) = 0
 constr_x_33: - x_33 + f(x_33) = 0
 constr_x_34: - x_34 + f(x_34) = 0
 constr_x_35: - x_35 + f(x_35) = 0
 constr_x_36: - x_36 + f(x_36) = 0
 constr_x_37: - x_37 + f(x_37) = 0
 constr_x_38: - x_38 + f(x_38) = 0
 constr_x_39: - x_39 + f(x_39) = 0
 constr_x_40: - x_40 + f(x_40) = 0
 constr_x_41: - x_41 + f(x_41) = 0
 constr_x_42: - x_42 + f(x_42) = 0
 constr_x_43: - x_43 + f(x_43) = 0
 constr_x_44: - x_44 + f(x_44) = 0
 constr_x_45: - x_45 + f(x_45) = 0
 constr_x_46: - x_46 + f(x_46) = 0
 constr_x_47: - x_47 + f(x_47) = 0
 constr_x_48: - x_48 + f(x_48) = 0
 constr_x_49: - x_49 + f(x_49) = 0
 constr_x_50: - x_50 + f(x_50) = 0
 constr_x_51: - x_51 + f(x_51) = 0
 constr_x_52: - x_52 + f(x_52) = 0
 constr_x_53: - x_53 + f(x_53) = 0
 constr_x_54: - x_54 + f(x_54) = 0
 constr_x_55: - x_55 + f(x_55) = 0
 constr_x_56: - x_56 + f(x_56) = 0
 constr_x_57: - x_57 + f(x_57) = 0
 constr_x_58: - x_58 + f(x_58) = 0
 constr_x_59: - x_59 + f(x_59) = 0
 constr_x_60: - x_60 + f(x_60) = 0
 constr_x_61: - x_61 + f(x_61) = 0
 constr_x_62: - x_62 + f(x_62) = 0
 constr_x_63: - x_63 + f(x_63) = 0
 constr_x_64: - x_64 + f(x_64) = 0
 constr_x_65: - x_65 + f(x_65) = 0
 constr_x_66: - x_66 + f(x_66) = 0
 constr_x_67: - x_67 + f(x_67) = 0
 constr_x_68: - x_68 + f(x_68) = 0
 constr_x_69: - x_69 + f(x_69) = 0
 constr_x_70: - x_70 + f(x_70) = 0
 constr_x_71: - x_71 + f(x_71) = 0
 constr_x_72: - x_72 + f(x_72) = 0
 constr_x_73: - x_73 + f(x_73) = 0
 constr_x_74: - x_74 + f(x_74) = 0
 constr_x_75: - x_75 + f(x_75) = 0
 constr_x_76: - x_76 + f(x_76) = 0
 constr_x_77: - x_77 + f(x_77) = 0
 constr_x_78: - x_78 + f(x_78) = 0
 constr_x_79: - x_79 + f(x_79) = 0
 constr_x_80: - x_80 + f(x_80) = 0
 constr_x_81: - x_81 + f(x_81) = 0
 constr_x_82: - x_82 + f(x_82) = 0
 constr_x_83: - x_83 + f(x_83) = 0
 constr_x_84: - x_84 + f(x_84) = 0
 constr_x_85: - x_85 + f(x_85) = 0
 constr_x_86: - x_86 + f(x_86) = 0
 constr_x_87: - x_87 + f(x_87) = 0
 constr_x_88: - x_88 + f(x_88) = 0
 constr_x_89: - x_89 + f(x_89) = 0
 constr_x_90: - x_90 + f(x_90) = 0
 constr_x_91: - x_91 + f(x_91) = 0
 constr_x_92: - x_92 + f(x_92) = 0
 constr_x_93: - x_93 + f(x_93) = 0
 constr_x_94: - x_94 + f(x_94) = 0
 constr_x_95: - x_95 + f(x_95) = 0
 constr_x_96: - x_96 + f(x_96) = 0
 constr_x_97: - x_97 + f(x_97) = 0
 constr_x_98: - x_98 + f(x_98) = 0
 constr_x_99: - x_99 + f(x_99) = 0
 R100: x_0 + x_1 + x_2 + x_3 + x_4 + x_5 + x_6 + x_7 + x_8 + x_9 + x_10
   + x_11 + x_12 + x_13 + x_14 + x_15 + x_16 + x_17 + x_18 + x_19 + x_20
   + x_21 + x_22 + x_23 + x_24 + x_25 + x_26 + x_27 + x_28 + x_29 + x_30
   + x_31 + x_32 + x_33 + x_34 + x_35 + x_36 + x_37 + x_38 + x_39 + x_40
   + x_41 + x_42 + x_43 + x_44 + x_45 + x_46 + x_47 + x_48 + x_49 + x_50
   + x_51 + x_52 + x_53 + x_54 + x_55 + x_56 + x_57 + x_58 + x_59 + x_60
   + x_61 + x_62 + x_63 + x_64 + x_65 + x_66 + x_67 + x_68 + x_69 + x_70
   + x_71 + x_72 + x_73 + x_74 + x_75 + x_76 + x_77 + x_78 + x_79 + x_80
   + x_81 + x_82 + x_83 + x_84 + x_85 + x_86 + x_87 + x_88 + x_89 + x_90
   + x_91 + x_92 + x_93 + x_94 + x_95 + x_96 + x_97 + x_98 + x_99 = 5
Bounds
 x_0 <= 5
 x_1 <= 5
 x_2 <= 5
 x_3 <= 5
 x_4 <= 5
 x_5 <= 5
 x_6 <= 5
 x_7 <= 5
 x_8 <= 5
 x_9 <= 5
 x_10 <= 5
 x_11 <= 5
 x_12 <= 5
 x_13 <= 5
 x_14 <= 5
 x_15 <= 5
 x_16 <= 5
 x_17 <= 5
 x_18 <= 5
 x_19 <= 5
 x_20 <= 5
 x_21 <= 5
 x_22 <= 5
 x_23 <= 5
 x_24 <= 5
 x_25 <= 5
 x_26 <= 5
 x_27 <= 5
 x_28 <= 5
 x_29 <= 5
 x_30 <= 5
 x_31 <= 5
 x_32 <= 5
 x_33 <= 5
 x_34 <= 5
 x_35 <= 5
 x_36 <= 5
 x_37 <= 5
 x_38 <= 5
 x_39 <= 5
 x_40 <= 5
 x_41 <= 5
 x_42 <= 5
 x_43 <= 5
 x_44 <= 5
 x_45 <= 5
 x_46 <= 5
 x_47 <= 5
 x_48 <= 5
 x_49 <= 5
 x_50 <= 5
 x_51 <= 5
 x_52 <= 5
 x_53 <= 5
 x_54 <= 5
 x_55 <= 5
 x_56 <= 5
 x_57 <= 5
 x_58 <= 5
 x_59 <= 5
 x_60 <= 5
 x_61 <= 5
 x_62 <= 5
 x_63 <= 5
 x_64 <= 5
 x_65 <= 5
 x_66 <= 5
 x_67 <= 5
 x_68 <= 5
 x_69 <= 5
 x_70 <= 5
 x_71 <= 5
 x_72 <= 5
 x_73 <= 5
 x_74 <= 5
 x_75 <= 5
 x_76 <= 5
 x_77 <= 5
 x_78 <= 5
 x_79 <= 5
 x_80 <= 5
 x_81 <= 5
 x_82 <= 5
 x_83 <= 5
 x_84 <= 5
 x_85 <= 5
 x_86 <= 5
 x_87 <= 5
 x_88 <= 5
 x_89 <= 5
 x_90 <= 5
 x_91 <= 5
 x_92 <= 5
 x_93 <= 5
 x_94 <= 5
 x_95 <= 5
 x_96 <= 5
 x_97 <= 5
 x_98 <= 5
 x_99 <= 5
Generals
 x_0 x_1 x_2 x_3 x_4 x_5 x_6 x_7 x_8 x_9 x_10 x_11 x_12 x_13 x_14 x_15 x_16
 x_17 x_18 x_19 x_20 x_21 x_22 x_23 x_24 x_25 x_26 x_27 x_28 x_29 x_30 x_31
 x_32 x_33 x_34 x_35 x_36 x_37 x_38 x_39 x_40 x_41 x_42 x_43 x_44 x_45 x_46
 x_47 x_48 x_49 x_50 x_51 x_52 x_53 x_54 x_55 x_56 x_57 x_58 x_59 x_60 x_61
 x_62 x_63 x_64 x_65 x_66 x_67 x_68 x_69 x_70 x_71 x_72 x_73 x_74 x_75 x_76
 x_77 x_78 x_79 x_80 x_81 x_82 x_83 x_84 x_85 x_86 x_87 x_88 x_89 x_90 x_91
 x_92 x_93 x_94 x_95 x_96 x_97 x_98 x_99
End
